c description: Tseitin formula on , with odd charge
c generator: CNFgen (0.9.0)
c copyright: (C) 2012-2020 Massimo Lauria <massimo.lauria@uniroma1.it>
c url: https://massimolauria.net/cnfgen
c
p cnf 40 320
1 2 3 4 5 6 7 0
1 2 3 4 5 -6 -7 0
1 2 3 4 -5 6 -7 0
1 2 3 4 -5 -6 7 0
1 2 3 -4 5 6 -7 0
1 2 3 -4 5 -6 7 0
1 2 3 -4 -5 6 7 0
1 2 3 -4 -5 -6 -7 0
1 2 -3 4 5 6 -7 0
1 2 -3 4 5 -6 7 0
1 2 -3 4 -5 6 7 0
1 2 -3 4 -5 -6 -7 0
1 2 -3 -4 5 6 7 0
1 2 -3 -4 5 -6 -7 0
1 2 -3 -4 -5 6 -7 0
1 2 -3 -4 -5 -6 7 0
1 -2 3 4 5 6 -7 0
1 -2 3 4 5 -6 7 0
1 -2 3 4 -5 6 7 0
1 -2 3 4 -5 -6 -7 0
1 -2 3 -4 5 6 7 0
1 -2 3 -4 5 -6 -7 0
1 -2 3 -4 -5 6 -7 0
1 -2 3 -4 -5 -6 7 0
1 -2 -3 4 5 6 7 0
1 -2 -3 4 5 -6 -7 0
1 -2 -3 4 -5 6 -7 0
1 -2 -3 4 -5 -6 7 0
1 -2 -3 -4 5 6 -7 0
1 -2 -3 -4 5 -6 7 0
1 -2 -3 -4 -5 6 7 0
1 -2 -3 -4 -5 -6 -7 0
-1 2 3 4 5 6 -7 0
-1 2 3 4 5 -6 7 0
-1 2 3 4 -5 6 7 0
-1 2 3 4 -5 -6 -7 0
-1 2 3 -4 5 6 7 0
-1 2 3 -4 5 -6 -7 0
-1 2 3 -4 -5 6 -7 0
-1 2 3 -4 -5 -6 7 0
-1 2 -3 4 5 6 7 0
-1 2 -3 4 5 -6 -7 0
-1 2 -3 4 -5 6 -7 0
-1 2 -3 4 -5 -6 7 0
-1 2 -3 -4 5 6 -7 0
-1 2 -3 -4 5 -6 7 0
-1 2 -3 -4 -5 6 7 0
-1 2 -3 -4 -5 -6 -7 0
-1 -2 3 4 5 6 7 0
-1 -2 3 4 5 -6 -7 0
-1 -2 3 4 -5 6 -7 0
-1 -2 3 4 -5 -6 7 0
-1 -2 3 -4 5 6 -7 0
-1 -2 3 -4 5 -6 7 0
-1 -2 3 -4 -5 6 7 0
-1 -2 3 -4 -5 -6 -7 0
-1 -2 -3 4 5 6 -7 0
-1 -2 -3 4 5 -6 7 0
-1 -2 -3 4 -5 6 7 0
-1 -2 -3 4 -5 -6 -7 0
-1 -2 -3 -4 5 6 7 0
-1 -2 -3 -4 5 -6 -7 0
-1 -2 -3 -4 -5 6 -7 0
-1 -2 -3 -4 -5 -6 7 0
1 8 -9 0
1 -8 9 0
-1 8 9 0
-1 -8 -9 0
10 -11 0
-10 11 0
12 13 14 15 16 -17 0
12 13 14 15 -16 17 0
12 13 14 -15 16 17 0
12 13 14 -15 -16 -17 0
12 13 -14 15 16 17 0
12 13 -14 15 -16 -17 0
12 13 -14 -15 16 -17 0
12 13 -14 -15 -16 17 0
12 -13 14 15 16 17 0
12 -13 14 15 -16 -17 0
12 -13 14 -15 16 -17 0
12 -13 14 -15 -16 17 0
12 -13 -14 15 16 -17 0
12 -13 -14 15 -16 17 0
12 -13 -14 -15 16 17 0
12 -13 -14 -15 -16 -17 0
-12 13 14 15 16 17 0
-12 13 14 15 -16 -17 0
-12 13 14 -15 16 -17 0
-12 13 14 -15 -16 17 0
-12 13 -14 15 16 -17 0
-12 13 -14 15 -16 17 0
-12 13 -14 -15 16 17 0
-12 13 -14 -15 -16 -17 0
-12 -13 14 15 16 -17 0
-12 -13 14 15 -16 17 0
-12 -13 14 -15 16 17 0
-12 -13 14 -15 -16 -17 0
-12 -13 -14 15 16 17 0
-12 -13 -14 15 -16 -17 0
-12 -13 -14 -15 16 -17 0
-12 -13 -14 -15 -16 17 0
-18 0
8 12 19 20 -21 0
8 12 19 -20 21 0
8 12 -19 20 21 0
8 12 -19 -20 -21 0
8 -12 19 20 21 0
8 -12 19 -20 -21 0
8 -12 -19 20 -21 0
8 -12 -19 -20 21 0
-8 12 19 20 21 0
-8 12 19 -20 -21 0
-8 12 -19 20 -21 0
-8 12 -19 -20 21 0
-8 -12 19 20 -21 0
-8 -12 19 -20 21 0
-8 -12 -19 20 21 0
-8 -12 -19 -20 -21 0
2 22 23 24 -25 0
2 22 23 -24 25 0
2 22 -23 24 25 0
2 22 -23 -24 -25 0
2 -22 23 24 25 0
2 -22 23 -24 -25 0
2 -22 -23 24 -25 0
2 -22 -23 -24 25 0
-2 22 23 24 25 0
-2 22 23 -24 -25 0
-2 22 -23 24 -25 0
-2 22 -23 -24 25 0
-2 -22 23 24 -25 0
-2 -22 23 -24 25 0
-2 -22 -23 24 25 0
-2 -22 -23 -24 -25 0
19 -26 0
-19 26 0
3 20 27 -28 0
3 20 -27 28 0
3 -20 27 28 0
3 -20 -27 -28 0
-3 20 27 28 0
-3 20 -27 -28 0
-3 -20 27 -28 0
-3 -20 -27 28 0
22 29 30 -31 0
22 29 -30 31 0
22 -29 30 31 0
22 -29 -30 -31 0
-22 29 30 31 0
-22 29 -30 -31 0
-22 -29 30 -31 0
-22 -29 -30 31 0
4 10 13 23 29 -32 0
4 10 13 23 -29 32 0
4 10 13 -23 29 32 0
4 10 13 -23 -29 -32 0
4 10 -13 23 29 32 0
4 10 -13 23 -29 -32 0
4 10 -13 -23 29 -32 0
4 10 -13 -23 -29 32 0
4 -10 13 23 29 32 0
4 -10 13 23 -29 -32 0
4 -10 13 -23 29 -32 0
4 -10 13 -23 -29 32 0
4 -10 -13 23 29 -32 0
4 -10 -13 23 -29 32 0
4 -10 -13 -23 29 32 0
4 -10 -13 -23 -29 -32 0
-4 10 13 23 29 32 0
-4 10 13 23 -29 -32 0
-4 10 13 -23 29 -32 0
-4 10 13 -23 -29 32 0
-4 10 -13 23 29 -32 0
-4 10 -13 23 -29 32 0
-4 10 -13 -23 29 32 0
-4 10 -13 -23 -29 -32 0
-4 -10 13 23 29 -32 0
-4 -10 13 23 -29 32 0
-4 -10 13 -23 29 32 0
-4 -10 13 -23 -29 -32 0
-4 -10 -13 23 29 32 0
-4 -10 -13 23 -29 -32 0
-4 -10 -13 -23 29 -32 0
-4 -10 -13 -23 -29 32 0
5 26 32 -33 0
5 26 -32 33 0
5 -26 32 33 0
5 -26 -32 -33 0
-5 26 32 33 0
-5 26 -32 -33 0
-5 -26 32 -33 0
-5 -26 -32 33 0
6 27 -34 0
6 -27 34 0
-6 27 34 0
-6 -27 -34 0
14 18 30 35 36 37 -38 0
14 18 30 35 36 -37 38 0
14 18 30 35 -36 37 38 0
14 18 30 35 -36 -37 -38 0
14 18 30 -35 36 37 38 0
14 18 30 -35 36 -37 -38 0
14 18 30 -35 -36 37 -38 0
14 18 30 -35 -36 -37 38 0
14 18 -30 35 36 37 38 0
14 18 -30 35 36 -37 -38 0
14 18 -30 35 -36 37 -38 0
14 18 -30 35 -36 -37 38 0
14 18 -30 -35 36 37 -38 0
14 18 -30 -35 36 -37 38 0
14 18 -30 -35 -36 37 38 0
14 18 -30 -35 -36 -37 -38 0
14 -18 30 35 36 37 38 0
14 -18 30 35 36 -37 -38 0
14 -18 30 35 -36 37 -38 0
14 -18 30 35 -36 -37 38 0
14 -18 30 -35 36 37 -38 0
14 -18 30 -35 36 -37 38 0
14 -18 30 -35 -36 37 38 0
14 -18 30 -35 -36 -37 -38 0
14 -18 -30 35 36 37 -38 0
14 -18 -30 35 36 -37 38 0
14 -18 -30 35 -36 37 38 0
14 -18 -30 35 -36 -37 -38 0
14 -18 -30 -35 36 37 38 0
14 -18 -30 -35 36 -37 -38 0
14 -18 -30 -35 -36 37 -38 0
14 -18 -30 -35 -36 -37 38 0
-14 18 30 35 36 37 38 0
-14 18 30 35 36 -37 -38 0
-14 18 30 35 -36 37 -38 0
-14 18 30 35 -36 -37 38 0
-14 18 30 -35 36 37 -38 0
-14 18 30 -35 36 -37 38 0
-14 18 30 -35 -36 37 38 0
-14 18 30 -35 -36 -37 -38 0
-14 18 -30 35 36 37 -38 0
-14 18 -30 35 36 -37 38 0
-14 18 -30 35 -36 37 38 0
-14 18 -30 35 -36 -37 -38 0
-14 18 -30 -35 36 37 38 0
-14 18 -30 -35 36 -37 -38 0
-14 18 -30 -35 -36 37 -38 0
-14 18 -30 -35 -36 -37 38 0
-14 -18 30 35 36 37 -38 0
-14 -18 30 35 36 -37 38 0
-14 -18 30 35 -36 37 38 0
-14 -18 30 35 -36 -37 -38 0
-14 -18 30 -35 36 37 38 0
-14 -18 30 -35 36 -37 -38 0
-14 -18 30 -35 -36 37 -38 0
-14 -18 30 -35 -36 -37 38 0
-14 -18 -30 35 36 37 38 0
-14 -18 -30 35 36 -37 -38 0
-14 -18 -30 35 -36 37 -38 0
-14 -18 -30 35 -36 -37 38 0
-14 -18 -30 -35 36 37 -38 0
-14 -18 -30 -35 36 -37 38 0
-14 -18 -30 -35 -36 37 38 0
-14 -18 -30 -35 -36 -37 -38 0
15 28 35 -39 0
15 28 -35 39 0
15 -28 35 39 0
15 -28 -35 -39 0
-15 28 35 39 0
-15 28 -35 -39 0
-15 -28 35 -39 0
-15 -28 -35 39 0
11 21 33 36 39 -40 0
11 21 33 36 -39 40 0
11 21 33 -36 39 40 0
11 21 33 -36 -39 -40 0
11 21 -33 36 39 40 0
11 21 -33 36 -39 -40 0
11 21 -33 -36 39 -40 0
11 21 -33 -36 -39 40 0
11 -21 33 36 39 40 0
11 -21 33 36 -39 -40 0
11 -21 33 -36 39 -40 0
11 -21 33 -36 -39 40 0
11 -21 -33 36 39 -40 0
11 -21 -33 36 -39 40 0
11 -21 -33 -36 39 40 0
11 -21 -33 -36 -39 -40 0
-11 21 33 36 39 40 0
-11 21 33 36 -39 -40 0
-11 21 33 -36 39 -40 0
-11 21 33 -36 -39 40 0
-11 21 -33 36 39 -40 0
-11 21 -33 36 -39 40 0
-11 21 -33 -36 39 40 0
-11 21 -33 -36 -39 -40 0
-11 -21 33 36 39 -40 0
-11 -21 33 36 -39 40 0
-11 -21 33 -36 39 40 0
-11 -21 33 -36 -39 -40 0
-11 -21 -33 36 39 40 0
-11 -21 -33 36 -39 -40 0
-11 -21 -33 -36 39 -40 0
-11 -21 -33 -36 -39 40 0
9 16 24 -31 0
9 16 -24 31 0
9 -16 24 31 0
9 -16 -24 -31 0
-9 16 24 31 0
-9 16 -24 -31 0
-9 -16 24 -31 0
-9 -16 -24 31 0
25 34 37 -40 0
25 34 -37 40 0
25 -34 37 40 0
25 -34 -37 -40 0
-25 34 37 40 0
-25 34 -37 -40 0
-25 -34 37 -40 0
-25 -34 -37 40 0
-7 0
17 -38 0
-17 38 0